c Maximum weighted clique instances generated from exactcolors.
c cutoff: 33554431.
c A clique of value > scalef (33554431) defines an improving stable sets for coloring.
p edge 64 1288
e 1 11
e 1 12
e 1 13
e 1 14
e 1 15
e 1 16
e 1 18
e 1 20
e 1 21
e 1 22
e 1 23
e 1 24
e 1 26
e 1 27
e 1 29
e 1 30
e 1 31
e 1 32
e 1 34
e 1 35
e 1 36
e 1 38
e 1 39
e 1 40
e 1 42
e 1 43
e 1 44
e 1 45
e 1 47
e 1 48
e 1 50
e 1 51
e 1 52
e 1 53
e 1 54
e 1 56
e 1 58
e 1 59
e 1 60
e 1 61
e 1 62
e 1 63
e 2 12
e 2 13
e 2 14
e 2 15
e 2 16
e 2 17
e 2 19
e 2 21
e 2 22
e 2 23
e 2 24
e 2 25
e 2 27
e 2 28
e 2 30
e 2 31
e 2 32
e 2 33
e 2 35
e 2 36
e 2 37
e 2 39
e 2 40
e 2 41
e 2 43
e 2 44
e 2 45
e 2 46
e 2 48
e 2 49
e 2 51
e 2 52
e 2 53
e 2 54
e 2 55
e 2 57
e 2 59
e 2 60
e 2 61
e 2 62
e 2 63
e 2 64
e 3 9
e 3 13
e 3 14
e 3 15
e 3 16
e 3 18
e 3 20
e 3 22
e 3 23
e 3 24
e 3 25
e 3 26
e 3 28
e 3 29
e 3 31
e 3 32
e 3 33
e 3 34
e 3 36
e 3 37
e 3 38
e 3 40
e 3 41
e 3 42
e 3 44
e 3 45
e 3 46
e 3 47
e 3 49
e 3 50
e 3 52
e 3 53
e 3 54
e 3 55
e 3 56
e 3 57
e 3 58
e 3 60
e 3 61
e 3 62
e 3 63
e 3 64
e 4 9
e 4 10
e 4 14
e 4 15
e 4 16
e 4 17
e 4 19
e 4 21
e 4 23
e 4 24
e 4 26
e 4 27
e 4 29
e 4 30
e 4 32
e 4 33
e 4 34
e 4 35
e 4 37
e 4 38
e 4 39
e 4 41
e 4 42
e 4 43
e 4 45
e 4 46
e 4 47
e 4 48
e 4 49
e 4 50
e 4 51
e 4 53
e 4 54
e 4 55
e 4 56
e 4 57
e 4 58
e 4 59
e 4 61
e 4 62
e 4 63
e 4 64
e 5 9
e 5 10
e 5 11
e 5 15
e 5 16
e 5 17
e 5 18
e 5 20
e 5 22
e 5 24
e 5 25
e 5 27
e 5 28
e 5 30
e 5 31
e 5 34
e 5 35
e 5 36
e 5 38
e 5 39
e 5 40
e 5 41
e 5 42
e 5 43
e 5 44
e 5 46
e 5 47
e 5 48
e 5 49
e 5 50
e 5 51
e 5 52
e 5 54
e 5 55
e 5 56
e 5 57
e 5 58
e 5 59
e 5 60
e 5 62
e 5 63
e 5 64
e 6 9
e 6 10
e 6 11
e 6 12
e 6 16
e 6 17
e 6 18
e 6 19
e 6 21
e 6 23
e 6 25
e 6 26
e 6 28
e 6 29
e 6 31
e 6 32
e 6 33
e 6 35
e 6 36
e 6 37
e 6 39
e 6 40
e 6 42
e 6 43
e 6 44
e 6 45
e 6 47
e 6 48
e 6 49
e 6 50
e 6 51
e 6 52
e 6 53
e 6 55
e 6 56
e 6 57
e 6 58
e 6 59
e 6 60
e 6 61
e 6 63
e 6 64
e 7 9
e 7 10
e 7 11
e 7 12
e 7 13
e 7 17
e 7 18
e 7 19
e 7 20
e 7 22
e 7 24
e 7 25
e 7 26
e 7 27
e 7 29
e 7 30
e 7 32
e 7 33
e 7 34
e 7 36
e 7 37
e 7 38
e 7 40
e 7 41
e 7 43
e 7 44
e 7 45
e 7 46
e 7 48
e 7 50
e 7 51
e 7 52
e 7 53
e 7 54
e 7 56
e 7 57
e 7 58
e 7 59
e 7 60
e 7 61
e 7 62
e 7 64
e 8 9
e 8 10
e 8 11
e 8 12
e 8 13
e 8 14
e 8 17
e 8 18
e 8 19
e 8 20
e 8 21
e 8 23
e 8 25
e 8 26
e 8 27
e 8 28
e 8 30
e 8 31
e 8 33
e 8 34
e 8 35
e 8 37
e 8 38
e 8 39
e 8 41
e 8 42
e 8 44
e 8 45
e 8 46
e 8 47
e 8 49
e 8 51
e 8 52
e 8 53
e 8 54
e 8 55
e 8 58
e 8 59
e 8 60
e 8 61
e 8 62
e 8 63
e 9 19
e 9 20
e 9 21
e 9 22
e 9 23
e 9 24
e 9 26
e 9 28
e 9 29
e 9 30
e 9 31
e 9 32
e 9 34
e 9 35
e 9 37
e 9 38
e 9 39
e 9 40
e 9 42
e 9 43
e 9 44
e 9 46
e 9 47
e 9 48
e 9 50
e 9 51
e 9 52
e 9 53
e 9 55
e 9 56
e 9 58
e 9 59
e 9 60
e 9 61
e 9 62
e 9 64
e 10 20
e 10 21
e 10 22
e 10 23
e 10 24
e 10 25
e 10 27
e 10 29
e 10 30
e 10 31
e 10 32
e 10 33
e 10 35
e 10 36
e 10 38
e 10 39
e 10 40
e 10 41
e 10 43
e 10 44
e 10 45
e 10 47
e 10 48
e 10 49
e 10 51
e 10 52
e 10 53
e 10 54
e 10 56
e 10 57
e 10 59
e 10 60
e 10 61
e 10 62
e 10 63
e 11 17
e 11 21
e 11 22
e 11 23
e 11 24
e 11 26
e 11 28
e 11 30
e 11 31
e 11 32
e 11 33
e 11 34
e 11 36
e 11 37
e 11 39
e 11 40
e 11 41
e 11 42
e 11 44
e 11 45
e 11 46
e 11 48
e 11 49
e 11 50
e 11 52
e 11 53
e 11 54
e 11 55
e 11 57
e 11 58
e 11 60
e 11 61
e 11 62
e 11 63
e 11 64
e 12 17
e 12 18
e 12 22
e 12 23
e 12 24
e 12 25
e 12 27
e 12 29
e 12 31
e 12 32
e 12 34
e 12 35
e 12 37
e 12 38
e 12 40
e 12 41
e 12 42
e 12 43
e 12 45
e 12 46
e 12 47
e 12 49
e 12 50
e 12 51
e 12 53
e 12 54
e 12 55
e 12 56
e 12 57
e 12 58
e 12 59
e 12 61
e 12 62
e 12 63
e 12 64
e 13 17
e 13 18
e 13 19
e 13 23
e 13 24
e 13 25
e 13 26
e 13 28
e 13 30
e 13 32
e 13 33
e 13 35
e 13 36
e 13 38
e 13 39
e 13 42
e 13 43
e 13 44
e 13 46
e 13 47
e 13 48
e 13 49
e 13 50
e 13 51
e 13 52
e 13 54
e 13 55
e 13 56
e 13 57
e 13 58
e 13 59
e 13 60
e 13 62
e 13 63
e 13 64
e 14 17
e 14 18
e 14 19
e 14 20
e 14 24
e 14 25
e 14 26
e 14 27
e 14 29
e 14 31
e 14 33
e 14 34
e 14 36
e 14 37
e 14 39
e 14 40
e 14 41
e 14 43
e 14 44
e 14 45
e 14 47
e 14 48
e 14 50
e 14 51
e 14 52
e 14 53
e 14 55
e 14 56
e 14 57
e 14 58
e 14 59
e 14 60
e 14 61
e 14 63
e 14 64
e 15 17
e 15 18
e 15 19
e 15 20
e 15 21
e 15 25
e 15 26
e 15 27
e 15 28
e 15 30
e 15 32
e 15 33
e 15 34
e 15 35
e 15 37
e 15 38
e 15 40
e 15 41
e 15 42
e 15 44
e 15 45
e 15 46
e 15 48
e 15 49
e 15 51
e 15 52
e 15 53
e 15 54
e 15 56
e 15 58
e 15 59
e 15 60
e 15 61
e 15 62
e 15 64
e 16 17
e 16 18
e 16 19
e 16 20
e 16 21
e 16 22
e 16 25
e 16 26
e 16 27
e 16 28
e 16 29
e 16 31
e 16 33
e 16 34
e 16 35
e 16 36
e 16 38
e 16 39
e 16 41
e 16 42
e 16 43
e 16 45
e 16 46
e 16 47
e 16 49
e 16 50
e 16 52
e 16 53
e 16 54
e 16 55
e 16 57
e 16 59
e 16 60
e 16 61
e 16 62
e 16 63
e 17 27
e 17 28
e 17 29
e 17 30
e 17 31
e 17 32
e 17 34
e 17 36
e 17 37
e 17 38
e 17 39
e 17 40
e 17 42
e 17 43
e 17 45
e 17 46
e 17 47
e 17 48
e 17 50
e 17 51
e 17 52
e 17 54
e 17 55
e 17 56
e 17 58
e 17 59
e 17 60
e 17 61
e 17 63
e 17 64
e 18 28
e 18 29
e 18 30
e 18 31
e 18 32
e 18 33
e 18 35
e 18 37
e 18 38
e 18 39
e 18 40
e 18 41
e 18 43
e 18 44
e 18 46
e 18 47
e 18 48
e 18 49
e 18 51
e 18 52
e 18 53
e 18 55
e 18 56
e 18 57
e 18 59
e 18 60
e 18 61
e 18 62
e 18 64
e 19 25
e 19 29
e 19 30
e 19 31
e 19 32
e 19 34
e 19 36
e 19 38
e 19 39
e 19 40
e 19 41
e 19 42
e 19 44
e 19 45
e 19 47
e 19 48
e 19 49
e 19 50
e 19 52
e 19 53
e 19 54
e 19 56
e 19 57
e 19 58
e 19 60
e 19 61
e 19 62
e 19 63
e 20 25
e 20 26
e 20 30
e 20 31
e 20 32
e 20 33
e 20 35
e 20 37
e 20 39
e 20 40
e 20 42
e 20 43
e 20 45
e 20 46
e 20 48
e 20 49
e 20 50
e 20 51
e 20 53
e 20 54
e 20 55
e 20 57
e 20 58
e 20 59
e 20 61
e 20 62
e 20 63
e 20 64
e 21 25
e 21 26
e 21 27
e 21 31
e 21 32
e 21 33
e 21 34
e 21 36
e 21 38
e 21 40
e 21 41
e 21 43
e 21 44
e 21 46
e 21 47
e 21 50
e 21 51
e 21 52
e 21 54
e 21 55
e 21 56
e 21 57
e 21 58
e 21 59
e 21 60
e 21 62
e 21 63
e 21 64
e 22 25
e 22 26
e 22 27
e 22 28
e 22 32
e 22 33
e 22 34
e 22 35
e 22 37
e 22 39
e 22 41
e 22 42
e 22 44
e 22 45
e 22 47
e 22 48
e 22 49
e 22 51
e 22 52
e 22 53
e 22 55
e 22 56
e 22 58
e 22 59
e 22 60
e 22 61
e 22 63
e 22 64
e 23 25
e 23 26
e 23 27
e 23 28
e 23 29
e 23 33
e 23 34
e 23 35
e 23 36
e 23 38
e 23 40
e 23 41
e 23 42
e 23 43
e 23 45
e 23 46
e 23 48
e 23 49
e 23 50
e 23 52
e 23 53
e 23 54
e 23 56
e 23 57
e 23 59
e 23 60
e 23 61
e 23 62
e 23 64
e 24 25
e 24 26
e 24 27
e 24 28
e 24 29
e 24 30
e 24 33
e 24 34
e 24 35
e 24 36
e 24 37
e 24 39
e 24 41
e 24 42
e 24 43
e 24 44
e 24 46
e 24 47
e 24 49
e 24 50
e 24 51
e 24 53
e 24 54
e 24 55
e 24 57
e 24 58
e 24 60
e 24 61
e 24 62
e 24 63
e 25 35
e 25 36
e 25 37
e 25 38
e 25 39
e 25 40
e 25 42
e 25 44
e 25 45
e 25 46
e 25 47
e 25 48
e 25 50
e 25 51
e 25 53
e 25 54
e 25 55
e 25 56
e 25 58
e 25 59
e 25 60
e 25 62
e 25 63
e 25 64
e 26 36
e 26 37
e 26 38
e 26 39
e 26 40
e 26 41
e 26 43
e 26 45
e 26 46
e 26 47
e 26 48
e 26 49
e 26 51
e 26 52
e 26 54
e 26 55
e 26 56
e 26 57
e 26 59
e 26 60
e 26 61
e 26 63
e 26 64
e 27 33
e 27 37
e 27 38
e 27 39
e 27 40
e 27 42
e 27 44
e 27 46
e 27 47
e 27 48
e 27 49
e 27 50
e 27 52
e 27 53
e 27 55
e 27 56
e 27 57
e 27 58
e 27 60
e 27 61
e 27 62
e 27 64
e 28 33
e 28 34
e 28 38
e 28 39
e 28 40
e 28 41
e 28 43
e 28 45
e 28 47
e 28 48
e 28 50
e 28 51
e 28 53
e 28 54
e 28 56
e 28 57
e 28 58
e 28 59
e 28 61
e 28 62
e 28 63
e 29 33
e 29 34
e 29 35
e 29 39
e 29 40
e 29 41
e 29 42
e 29 44
e 29 46
e 29 48
e 29 49
e 29 51
e 29 52
e 29 54
e 29 55
e 29 58
e 29 59
e 29 60
e 29 62
e 29 63
e 29 64
e 30 33
e 30 34
e 30 35
e 30 36
e 30 40
e 30 41
e 30 42
e 30 43
e 30 45
e 30 47
e 30 49
e 30 50
e 30 52
e 30 53
e 30 55
e 30 56
e 30 57
e 30 59
e 30 60
e 30 61
e 30 63
e 30 64
e 31 33
e 31 34
e 31 35
e 31 36
e 31 37
e 31 41
e 31 42
e 31 43
e 31 44
e 31 46
e 31 48
e 31 49
e 31 50
e 31 51
e 31 53
e 31 54
e 31 56
e 31 57
e 31 58
e 31 60
e 31 61
e 31 62
e 31 64
e 32 33
e 32 34
e 32 35
e 32 36
e 32 37
e 32 38
e 32 41
e 32 42
e 32 43
e 32 44
e 32 45
e 32 47
e 32 49
e 32 50
e 32 51
e 32 52
e 32 54
e 32 55
e 32 57
e 32 58
e 32 59
e 32 61
e 32 62
e 32 63
e 33 43
e 33 44
e 33 45
e 33 46
e 33 47
e 33 48
e 33 50
e 33 52
e 33 53
e 33 54
e 33 55
e 33 56
e 33 58
e 33 59
e 33 61
e 33 62
e 33 63
e 33 64
e 34 44
e 34 45
e 34 46
e 34 47
e 34 48
e 34 49
e 34 51
e 34 53
e 34 54
e 34 55
e 34 56
e 34 57
e 34 59
e 34 60
e 34 62
e 34 63
e 34 64
e 35 41
e 35 45
e 35 46
e 35 47
e 35 48
e 35 50
e 35 52
e 35 54
e 35 55
e 35 56
e 35 57
e 35 58
e 35 60
e 35 61
e 35 63
e 35 64
e 36 41
e 36 42
e 36 46
e 36 47
e 36 48
e 36 49
e 36 51
e 36 53
e 36 55
e 36 56
e 36 58
e 36 59
e 36 61
e 36 62
e 36 64
e 37 41
e 37 42
e 37 43
e 37 47
e 37 48
e 37 49
e 37 50
e 37 52
e 37 54
e 37 56
e 37 57
e 37 59
e 37 60
e 37 62
e 37 63
e 38 41
e 38 42
e 38 43
e 38 44
e 38 48
e 38 49
e 38 50
e 38 51
e 38 53
e 38 55
e 38 57
e 38 58
e 38 60
e 38 61
e 38 63
e 38 64
e 39 41
e 39 42
e 39 43
e 39 44
e 39 45
e 39 49
e 39 50
e 39 51
e 39 52
e 39 54
e 39 56
e 39 57
e 39 58
e 39 59
e 39 61
e 39 62
e 39 64
e 40 41
e 40 42
e 40 43
e 40 44
e 40 45
e 40 46
e 40 49
e 40 50
e 40 51
e 40 52
e 40 53
e 40 55
e 40 57
e 40 58
e 40 59
e 40 60
e 40 62
e 40 63
e 41 51
e 41 52
e 41 53
e 41 54
e 41 55
e 41 56
e 41 58
e 41 60
e 41 61
e 41 62
e 41 63
e 41 64
e 42 52
e 42 53
e 42 54
e 42 55
e 42 56
e 42 57
e 42 59
e 42 61
e 42 62
e 42 63
e 42 64
e 43 49
e 43 53
e 43 54
e 43 55
e 43 56
e 43 58
e 43 60
e 43 62
e 43 63
e 43 64
e 44 49
e 44 50
e 44 54
e 44 55
e 44 56
e 44 57
e 44 59
e 44 61
e 44 63
e 44 64
e 45 49
e 45 50
e 45 51
e 45 55
e 45 56
e 45 57
e 45 58
e 45 60
e 45 62
e 45 64
e 46 49
e 46 50
e 46 51
e 46 52
e 46 56
e 46 57
e 46 58
e 46 59
e 46 61
e 46 63
e 47 49
e 47 50
e 47 51
e 47 52
e 47 53
e 47 57
e 47 58
e 47 59
e 47 60
e 47 62
e 47 64
e 48 49
e 48 50
e 48 51
e 48 52
e 48 53
e 48 54
e 48 57
e 48 58
e 48 59
e 48 60
e 48 61
e 48 63
e 49 59
e 49 60
e 49 61
e 49 62
e 49 63
e 49 64
e 50 60
e 50 61
e 50 62
e 50 63
e 50 64
e 51 57
e 51 61
e 51 62
e 51 63
e 51 64
e 52 57
e 52 58
e 52 62
e 52 63
e 52 64
e 53 57
e 53 58
e 53 59
e 53 63
e 53 64
e 54 57
e 54 58
e 54 59
e 54 60
e 54 64
e 55 57
e 55 58
e 55 59
e 55 60
e 55 61
e 56 57
e 56 58
e 56 59
e 56 60
e 56 61
e 56 62
n 1 7456540
n 2 3728270
n 3 3728270
n 4 3728270
n 5 3728270
n 6 3728270
n 7 3728270
n 8 7456540
n 9 3728270
n 10 3728270
n 11 3728270
n 12 3728270
n 13 3728270
n 14 3728270
n 15 3728270
n 16 3728270
n 17 3728270
n 18 3728270
n 19 7456540
n 20 3728270
n 21 3728270
n 22 7456540
n 23 3728270
n 24 3728270
n 25 3728270
n 26 3728270
n 27 3728270
n 28 7456540
n 29 7456540
n 30 3728270
n 31 3728270
n 32 3728270
n 33 3728270
n 34 3728270
n 35 3728270
n 36 7456540
n 37 7456540
n 38 3728270
n 39 3728270
n 40 3728270
n 41 3728270
n 42 3728270
n 43 7456540
n 44 3728270
n 45 3728270
n 46 7456540
n 47 3728270
n 48 3728270
n 49 3728270
n 50 3728270
n 51 3728270
n 52 3728270
n 53 3728270
n 54 3728270
n 55 3728270
n 56 3728270
n 57 7456540
n 58 3728270
n 59 3728270
n 60 3728270
n 61 3728270
n 62 3728270
n 63 3728270
n 64 7456540
